p cnf 318 1087
c input variables 12
c output variables 1
c literals 3014
-13 3 0
13 -3 6 0
-13 -6 0
-14 2 0
14 -2 3 5 6 0
-14 3 -6 0
-14 -5 0
14 -2 -3 5 -6 0
-14 -3 6 0
15 -14 0
-15 13 14 0
15 -13 0
-16 1 0
16 -1 3 4 6 0
-16 3 -6 0
-16 -4 0
16 -1 -3 4 -6 0
-16 -3 6 0
17 2 5 -16 0
-17 16 0
-17 2 -5 0
-17 -2 5 0
17 -2 -5 -16 0
18 -17 0
-18 15 17 0
18 -15 0
19 -1 18 0
19 -4 -18 0
-19 1 18 0
-19 4 -18 0
20 -2 18 0
20 -5 -18 0
-20 2 18 0
-20 5 -18 0
21 -3 18 0
21 -6 -18 0
-21 3 18 0
-21 6 -18 0
22 -4 18 0
22 -1 -18 0
-22 4 18 0
-22 1 -18 0
23 -5 18 0
23 -2 -18 0
-23 5 18 0
-23 2 -18 0
24 -6 18 0
24 -3 -18 0
-24 6 18 0
-24 3 -18 0
25 9 -24 0
-25 24 0
-25 -9 0
-26 23 0
26 8 9 -23 24 0
-26 9 -24 0
26 8 -9 -23 -24 0
-26 -9 24 0
-26 -8 0
27 -26 0
-27 25 26 0
27 -25 0
-28 22 0
28 7 9 -22 24 0
-28 9 -24 0
28 7 -9 -22 -24 0
-28 -9 24 0
-28 -7 0
29 8 23 -28 0
-29 28 0
-29 8 -23 0
-29 -8 23 0
29 -8 -23 -28 0
30 -29 0
-30 27 29 0
30 -27 0
31 -22 30 0
31 -7 -30 0
-31 22 30 0
-31 7 -30 0
32 -23 30 0
32 -8 -30 0
-32 23 30 0
-32 8 -30 0
33 -24 30 0
33 -9 -30 0
-33 24 30 0
-33 9 -30 0
34 -7 30 0
34 -22 -30 0
-34 7 30 0
-34 22 -30 0
35 -8 30 0
35 -23 -30 0
-35 8 30 0
-35 23 -30 0
36 -9 30 0
36 -24 -30 0
-36 9 30 0
-36 24 -30 0
37 12 -36 0
-37 36 0
-37 -12 0
-38 35 0
38 11 12 -35 36 0
-38 12 -36 0
38 11 -12 -35 -36 0
-38 -12 36 0
-38 -11 0
39 -38 0
-39 37 38 0
39 -37 0
-40 34 0
40 10 12 -34 36 0
-40 12 -36 0
40 10 -12 -34 -36 0
-40 -12 36 0
-40 -10 0
41 11 35 -40 0
-41 40 0
-41 11 -35 0
-41 -11 35 0
41 -11 -35 -40 0
42 -41 0
-42 39 41 0
42 -39 0
43 -34 42 0
43 -10 -42 0
-43 34 42 0
-43 10 -42 0
44 -35 42 0
44 -11 -42 0
-44 35 42 0
-44 11 -42 0
45 -36 42 0
45 -12 -42 0
-45 36 42 0
-45 12 -42 0
46 -10 42 0
46 -34 -42 0
-46 10 42 0
-46 34 -42 0
47 -11 42 0
47 -35 -42 0
-47 11 42 0
-47 35 -42 0
48 -12 42 0
48 -36 -42 0
-48 12 42 0
-48 36 -42 0
-49 21 0
49 -21 33 0
-49 -33 0
-50 20 0
50 -20 21 32 33 0
-50 21 -33 0
-50 -32 0
50 -20 -21 32 -33 0
-50 -21 33 0
51 -50 0
-51 49 50 0
51 -49 0
-52 19 0
52 -19 21 31 33 0
-52 21 -33 0
-52 -31 0
52 -19 -21 31 -33 0
-52 -21 33 0
53 20 32 -52 0
-53 52 0
-53 20 -32 0
-53 -20 32 0
53 -20 -32 -52 0
54 -53 0
-54 51 53 0
54 -51 0
55 -19 54 0
55 -31 -54 0
-55 19 54 0
-55 31 -54 0
56 -20 54 0
56 -32 -54 0
-56 20 54 0
-56 32 -54 0
57 -21 54 0
57 -33 -54 0
-57 21 54 0
-57 33 -54 0
58 -31 54 0
58 -19 -54 0
-58 31 54 0
-58 19 -54 0
59 -32 54 0
59 -20 -54 0
-59 32 54 0
-59 20 -54 0
60 -33 54 0
60 -21 -54 0
-60 33 54 0
-60 21 -54 0
61 45 -60 0
-61 60 0
-61 -45 0
-62 59 0
62 44 45 -59 60 0
-62 45 -60 0
62 44 -45 -59 -60 0
-62 -45 60 0
-62 -44 0
63 -62 0
-63 61 62 0
63 -61 0
-64 58 0
64 43 45 -58 60 0
-64 45 -60 0
64 43 -45 -58 -60 0
-64 -45 60 0
-64 -43 0
65 44 59 -64 0
-65 64 0
-65 44 -59 0
-65 -44 59 0
65 -44 -59 -64 0
66 -65 0
-66 63 65 0
66 -63 0
67 -58 66 0
67 -43 -66 0
-67 58 66 0
-67 43 -66 0
68 -59 66 0
68 -44 -66 0
-68 59 66 0
-68 44 -66 0
69 -60 66 0
69 -45 -66 0
-69 60 66 0
-69 45 -66 0
70 -43 66 0
70 -58 -66 0
-70 43 66 0
-70 58 -66 0
71 -44 66 0
71 -59 -66 0
-71 44 66 0
-71 59 -66 0
72 -45 66 0
72 -60 -66 0
-72 45 66 0
-72 60 -66 0
-73 57 0
73 -57 69 0
-73 -69 0
-74 56 0
74 -56 57 68 69 0
-74 57 -69 0
-74 -68 0
74 -56 -57 68 -69 0
-74 -57 69 0
75 -74 0
-75 73 74 0
75 -73 0
-76 55 0
76 -55 57 67 69 0
-76 57 -69 0
-76 -67 0
76 -55 -57 67 -69 0
-76 -57 69 0
77 56 68 -76 0
-77 76 0
-77 56 -68 0
-77 -56 68 0
77 -56 -68 -76 0
78 -77 0
-78 75 77 0
78 -75 0
79 -55 78 0
79 -67 -78 0
-79 55 78 0
-79 67 -78 0
80 -56 78 0
80 -68 -78 0
-80 56 78 0
-80 68 -78 0
81 -57 78 0
81 -69 -78 0
-81 57 78 0
-81 69 -78 0
82 -67 78 0
82 -55 -78 0
-82 67 78 0
-82 55 -78 0
83 -68 78 0
83 -56 -78 0
-83 68 78 0
-83 56 -78 0
84 -69 78 0
84 -57 -78 0
-84 69 78 0
-84 57 -78 0
85 3 -6 0
-85 6 0
-85 -3 0
-86 5 0
86 2 3 -5 6 0
-86 3 -6 0
86 2 -3 -5 -6 0
-86 -3 6 0
-86 -2 0
87 -86 0
-87 85 86 0
87 -85 0
-88 4 0
88 1 3 -4 6 0
-88 3 -6 0
88 1 -3 -4 -6 0
-88 -3 6 0
-88 -1 0
89 2 5 -88 0
-89 88 0
-89 2 -5 0
-89 -2 5 0
89 -2 -5 -88 0
90 -89 0
-90 87 89 0
90 -87 0
-91 90 0
91 -90 0
-92 0
-93 0
94 -93 0
-94 92 93 0
94 -92 0
-95 0
96 -95 0
-96 95 0
97 -96 0
-97 94 96 0
97 -94 0
-98 91 0
98 -91 -97 0
-98 97 0
99 -98 0
-99 91 98 0
99 -91 0
100 99 0
-100 -99 0
101 3 -9 0
-101 9 0
-101 -3 0
-102 8 0
102 2 3 -8 9 0
-102 3 -9 0
102 2 -3 -8 -9 0
-102 -3 9 0
-102 -2 0
103 -102 0
-103 101 102 0
103 -101 0
-104 7 0
104 1 3 -7 9 0
-104 3 -9 0
104 1 -3 -7 -9 0
-104 -3 9 0
-104 -1 0
105 2 8 -104 0
-105 104 0
-105 2 -8 0
-105 -2 8 0
105 -2 -8 -104 0
106 -105 0
-106 103 105 0
106 -103 0
-107 100 0
107 -100 -106 0
-107 106 0
-108 99 0
108 -99 107 0
-108 -107 0
-109 107 0
109 -107 0
-110 108 0
110 -108 109 0
-110 -109 0
111 6 -9 0
-111 9 0
-111 -6 0
-112 8 0
112 5 6 -8 9 0
-112 6 -9 0
112 5 -6 -8 -9 0
-112 -6 9 0
-112 -5 0
113 -112 0
-113 111 112 0
113 -111 0
-114 7 0
114 4 6 -7 9 0
-114 6 -9 0
114 4 -6 -7 -9 0
-114 -6 9 0
-114 -4 0
115 5 8 -114 0
-115 114 0
-115 5 -8 0
-115 -5 8 0
115 -5 -8 -114 0
116 -115 0
-116 113 115 0
116 -113 0
-117 110 0
117 -110 -116 0
-117 116 0
-118 108 0
118 -108 117 0
-118 -117 0
119 -117 0
-119 109 117 0
119 -109 0
120 118 0
-120 -118 0
-121 119 0
121 -119 -120 0
-121 120 0
-122 0
-123 0
124 -123 0
-124 122 123 0
124 -122 0
-125 0
126 -125 0
-126 125 0
127 -126 0
-127 124 126 0
127 -124 0
-128 121 0
128 -121 -127 0
-128 127 0
-129 118 0
129 -118 128 0
-129 -128 0
130 -128 0
-130 119 128 0
130 -119 0
-131 129 0
131 -129 -130 0
-131 130 0
-132 9 0
132 -9 12 0
-132 -12 0
-133 8 0
133 -8 9 11 12 0
-133 9 -12 0
-133 -11 0
133 -8 -9 11 -12 0
-133 -9 12 0
134 -133 0
-134 132 133 0
134 -132 0
-135 7 0
135 -7 9 10 12 0
-135 9 -12 0
-135 -10 0
135 -7 -9 10 -12 0
-135 -9 12 0
136 8 11 -135 0
-136 135 0
-136 8 -11 0
-136 -8 11 0
136 -8 -11 -135 0
137 -136 0
-137 134 136 0
137 -134 0
-138 131 0
138 -131 -137 0
-138 137 0
-139 129 0
139 -129 138 0
-139 -138 0
140 -138 0
-140 130 138 0
140 -130 0
141 139 0
-141 -139 0
142 140 -141 0
-142 141 0
-142 -140 0
143 3 -12 0
-143 12 0
-143 -3 0
-144 11 0
144 2 3 -11 12 0
-144 3 -12 0
144 2 -3 -11 -12 0
-144 -3 12 0
-144 -2 0
145 -144 0
-145 143 144 0
145 -143 0
-146 10 0
146 1 3 -10 12 0
-146 3 -12 0
146 1 -3 -10 -12 0
-146 -3 12 0
-146 -1 0
147 2 11 -146 0
-147 146 0
-147 2 -11 0
-147 -2 11 0
147 -2 -11 -146 0
148 -147 0
-148 145 147 0
148 -145 0
-149 142 0
149 -142 -148 0
-149 148 0
150 -149 0
-150 139 149 0
150 -139 0
151 -149 0
-151 140 149 0
151 -140 0
-152 150 0
152 -150 151 0
-152 -151 0
153 6 -12 0
-153 12 0
-153 -6 0
-154 11 0
154 5 6 -11 12 0
-154 6 -12 0
154 5 -6 -11 -12 0
-154 -6 12 0
-154 -5 0
155 -154 0
-155 153 154 0
155 -153 0
-156 10 0
156 4 6 -10 12 0
-156 6 -12 0
156 4 -6 -10 -12 0
-156 -6 12 0
-156 -4 0
157 5 11 -156 0
-157 156 0
-157 5 -11 0
-157 -5 11 0
157 -5 -11 -156 0
158 -157 0
-158 155 157 0
158 -155 0
-159 152 0
159 -152 -158 0
-159 158 0
160 -159 0
-160 150 159 0
160 -150 0
161 -159 0
-161 151 159 0
161 -151 0
162 160 0
-162 -160 0
-163 161 0
163 -161 -162 0
-163 162 0
164 9 -12 0
-164 12 0
-164 -9 0
-165 11 0
165 8 9 -11 12 0
-165 9 -12 0
165 8 -9 -11 -12 0
-165 -9 12 0
-165 -8 0
166 -165 0
-166 164 165 0
166 -164 0
-167 10 0
167 7 9 -10 12 0
-167 9 -12 0
167 7 -9 -10 -12 0
-167 -9 12 0
-167 -7 0
168 8 11 -167 0
-168 167 0
-168 8 -11 0
-168 -8 11 0
168 -8 -11 -167 0
169 -168 0
-169 166 168 0
169 -166 0
-170 163 0
170 -163 -169 0
-170 169 0
171 -170 0
-171 160 170 0
171 -160 0
172 -170 0
-172 161 170 0
172 -161 0
-173 171 0
173 -171 -172 0
-173 172 0
-174 0
-175 0
176 -175 0
-176 174 175 0
176 -174 0
-177 0
178 -177 0
-178 177 0
179 -178 0
-179 176 178 0
179 -176 0
-180 173 0
180 -173 -179 0
-180 179 0
181 -180 0
-181 171 180 0
181 -171 0
182 -180 0
-182 172 180 0
182 -172 0
-183 181 0
183 -181 182 0
-183 -182 0
184 -1 183 0
184 -4 -183 0
-184 1 183 0
-184 4 -183 0
185 -2 183 0
185 -5 -183 0
-185 2 183 0
-185 5 -183 0
186 -3 183 0
186 -6 -183 0
-186 3 183 0
-186 6 -183 0
187 -4 183 0
187 -1 -183 0
-187 4 183 0
-187 1 -183 0
188 -5 183 0
188 -2 -183 0
-188 5 183 0
-188 2 -183 0
189 -6 183 0
189 -3 -183 0
-189 6 183 0
-189 3 -183 0
190 181 0
-190 -181 0
-191 182 0
191 -182 -190 0
-191 190 0
192 -184 191 0
192 -7 -191 0
-192 184 191 0
-192 7 -191 0
193 -185 191 0
193 -8 -191 0
-193 185 191 0
-193 8 -191 0
194 -186 191 0
194 -9 -191 0
-194 186 191 0
-194 9 -191 0
195 -7 191 0
195 -184 -191 0
-195 7 191 0
-195 184 -191 0
196 -8 191 0
196 -185 -191 0
-196 8 191 0
-196 185 -191 0
197 -9 191 0
197 -186 -191 0
-197 9 191 0
-197 186 -191 0
198 -187 0
-198 187 0
199 -188 0
-199 188 0
200 -189 0
-200 189 0
-201 181 0
201 -181 -182 0
-201 182 0
202 201 0
-202 -201 0
203 -192 202 0
203 -10 -202 0
-203 192 202 0
-203 10 -202 0
204 -193 202 0
204 -11 -202 0
-204 193 202 0
-204 11 -202 0
205 -194 202 0
205 -12 -202 0
-205 194 202 0
-205 12 -202 0
206 -10 202 0
206 -192 -202 0
-206 10 202 0
-206 192 -202 0
207 -11 202 0
207 -193 -202 0
-207 11 202 0
-207 193 -202 0
208 -12 202 0
208 -194 -202 0
-208 12 202 0
-208 194 -202 0
209 -198 202 0
209 -195 -202 0
-209 198 202 0
-209 195 -202 0
210 -199 202 0
210 -196 -202 0
-210 199 202 0
-210 196 -202 0
211 -200 202 0
211 -197 -202 0
-211 200 202 0
-211 197 -202 0
212 -195 202 0
212 -198 -202 0
-212 195 202 0
-212 198 -202 0
213 -196 202 0
213 -199 -202 0
-213 196 202 0
-213 199 -202 0
214 -197 202 0
214 -200 -202 0
-214 197 202 0
-214 200 -202 0
215 205 -211 0
-215 211 0
-215 -205 0
-216 210 0
216 204 205 -210 211 0
-216 205 -211 0
216 204 -205 -210 -211 0
-216 -205 211 0
-216 -204 0
217 -216 0
-217 215 216 0
217 -215 0
-218 209 0
218 203 205 -209 211 0
-218 205 -211 0
218 203 -205 -209 -211 0
-218 -205 211 0
-218 -203 0
219 204 210 -218 0
-219 218 0
-219 204 -210 0
-219 -204 210 0
219 -204 -210 -218 0
220 -219 0
-220 217 219 0
220 -217 0
-221 220 0
221 -220 0
-222 0
-223 0
224 -223 0
-224 222 223 0
224 -222 0
-225 0
226 -225 0
-226 225 0
227 -226 0
-227 224 226 0
227 -224 0
-228 221 0
228 -221 -227 0
-228 227 0
229 -228 0
-229 221 228 0
229 -221 0
230 229 0
-230 -229 0
231 205 -214 0
-231 214 0
-231 -205 0
-232 213 0
232 204 205 -213 214 0
-232 205 -214 0
232 204 -205 -213 -214 0
-232 -205 214 0
-232 -204 0
233 -232 0
-233 231 232 0
233 -231 0
-234 212 0
234 203 205 -212 214 0
-234 205 -214 0
234 203 -205 -212 -214 0
-234 -205 214 0
-234 -203 0
235 204 213 -234 0
-235 234 0
-235 204 -213 0
-235 -204 213 0
235 -204 -213 -234 0
236 -235 0
-236 233 235 0
236 -233 0
-237 230 0
237 -230 -236 0
-237 236 0
-238 229 0
238 -229 237 0
-238 -237 0
-239 237 0
239 -237 0
-240 238 0
240 -238 239 0
-240 -239 0
241 211 -214 0
-241 214 0
-241 -211 0
-242 213 0
242 210 211 -213 214 0
-242 211 -214 0
242 210 -211 -213 -214 0
-242 -211 214 0
-242 -210 0
243 -242 0
-243 241 242 0
243 -241 0
-244 212 0
244 209 211 -212 214 0
-244 211 -214 0
244 209 -211 -212 -214 0
-244 -211 214 0
-244 -209 0
245 210 213 -244 0
-245 244 0
-245 210 -213 0
-245 -210 213 0
245 -210 -213 -244 0
246 -245 0
-246 243 245 0
246 -243 0
-247 240 0
247 -240 -246 0
-247 246 0
-248 238 0
248 -238 247 0
-248 -247 0
249 -247 0
-249 239 247 0
249 -239 0
250 248 0
-250 -248 0
-251 249 0
251 -249 -250 0
-251 250 0
-252 0
-253 0
254 -253 0
-254 252 253 0
254 -252 0
-255 0
256 -255 0
-256 255 0
257 -256 0
-257 254 256 0
257 -254 0
-258 251 0
258 -251 -257 0
-258 257 0
-259 248 0
259 -248 258 0
-259 -258 0
260 -258 0
-260 249 258 0
260 -249 0
-261 259 0
261 -259 260 0
-261 -260 0
262 -203 261 0
262 -209 -261 0
-262 203 261 0
-262 209 -261 0
263 -204 261 0
263 -210 -261 0
-263 204 261 0
-263 210 -261 0
264 -205 261 0
264 -211 -261 0
-264 205 261 0
-264 211 -261 0
265 -209 261 0
265 -203 -261 0
-265 209 261 0
-265 203 -261 0
266 -210 261 0
266 -204 -261 0
-266 210 261 0
-266 204 -261 0
267 -211 261 0
267 -205 -261 0
-267 211 261 0
-267 205 -261 0
268 259 0
-268 -259 0
-269 260 0
269 -260 -268 0
-269 268 0
270 269 0
-270 -269 0
271 -262 270 0
271 -212 -270 0
-271 262 270 0
-271 212 -270 0
272 -263 270 0
272 -213 -270 0
-272 263 270 0
-272 213 -270 0
273 -264 270 0
273 -214 -270 0
-273 264 270 0
-273 214 -270 0
274 -212 270 0
274 -262 -270 0
-274 212 270 0
-274 262 -270 0
275 -213 270 0
275 -263 -270 0
-275 213 270 0
-275 263 -270 0
276 -214 270 0
276 -264 -270 0
-276 214 270 0
-276 264 -270 0
277 -265 0
-277 265 0
278 -266 0
-278 266 0
279 -267 0
-279 267 0
280 273 -279 0
-280 279 0
-280 -273 0
-281 278 0
281 272 273 -278 279 0
-281 273 -279 0
281 272 -273 -278 -279 0
-281 -273 279 0
-281 -272 0
282 -281 0
-282 280 281 0
282 -280 0
-283 277 0
283 271 273 -277 279 0
-283 273 -279 0
283 271 -273 -277 -279 0
-283 -273 279 0
-283 -271 0
284 272 278 -283 0
-284 283 0
-284 272 -278 0
-284 -272 278 0
284 -272 -278 -283 0
285 -284 0
-285 282 284 0
285 -282 0
-286 285 0
286 -285 0
-287 0
-288 0
289 -288 0
-289 287 288 0
289 -287 0
-290 0
291 -290 0
-291 290 0
292 -291 0
-292 289 291 0
292 -289 0
-293 286 0
293 -286 -292 0
-293 292 0
294 -293 0
-294 286 293 0
294 -286 0
295 294 0
-295 -294 0
296 -271 295 0
296 -277 -295 0
-296 271 295 0
-296 277 -295 0
297 -272 295 0
297 -278 -295 0
-297 272 295 0
-297 278 -295 0
298 -273 295 0
298 -279 -295 0
-298 273 295 0
-298 279 -295 0
299 -277 295 0
299 -271 -295 0
-299 277 295 0
-299 271 -295 0
300 -278 295 0
300 -272 -295 0
-300 278 295 0
-300 272 -295 0
301 -279 295 0
301 -273 -295 0
-301 279 295 0
-301 273 -295 0
302 79 -296 0
302 -79 296 0
-302 79 296 0
-302 -79 -296 0
303 80 -297 0
303 -80 297 0
-303 80 297 0
-303 -80 -297 0
304 81 -298 0
304 -81 298 0
-304 81 298 0
-304 -81 -298 0
305 82 -299 0
305 -82 299 0
-305 82 299 0
-305 -82 -299 0
306 83 -300 0
306 -83 300 0
-306 83 300 0
-306 -83 -300 0
307 84 -301 0
307 -84 301 0
-307 84 301 0
-307 -84 -301 0
308 70 -274 0
308 -70 274 0
-308 70 274 0
-308 -70 -274 0
309 71 -275 0
309 -71 275 0
-309 71 275 0
-309 -71 -275 0
310 72 -276 0
310 -72 276 0
-310 72 276 0
-310 -72 -276 0
311 46 -206 0
311 -46 206 0
-311 46 206 0
-311 -46 -206 0
312 47 -207 0
312 -47 207 0
-312 47 207 0
-312 -47 -207 0
313 48 -208 0
313 -48 208 0
-313 48 208 0
-313 -48 -208 0
314 -304 0
-314 302 303 304 0
314 -303 0
314 -302 0
315 -307 0
-315 305 306 307 0
315 -306 0
315 -305 0
316 -310 0
-316 308 309 310 0
316 -309 0
316 -308 0
317 -313 0
-317 311 312 313 0
317 -312 0
317 -311 0
318 -317 0
-318 314 315 316 317 0
318 -316 0
318 -315 0
318 -314 0
318 0
